DIR: 0.0, EFF: 0.8333333333333333, INT: 0.08333333333333333, OBJ: 0.08333333333333333
original problem has 200 variables (200 bin, 0 int, 0 impl, 0 cont) and 16997 constraints
1/1 feasible solution given by solution candidate storage, new primal bound -6.900000e+01

presolving:
   (0.1s) running MILP presolver
   (0.1s) MILP presolver found nothing
   (0.3s) probing: 51/200 (25.5%) - 0 fixings, 0 aggregations, 0 implications, 0 bound changes
   (0.3s) probing aborted: 50/50 successive totally useless probings
presolving (1 rounds: 1 fast, 1 medium, 1 exhaustive):
 0 deleted vars, 0 deleted constraints, 0 added constraints, 0 tightened bounds, 0 added holes, 0 changed sides, 0 changed coefficients
 0 implications, 246 cliques
presolved problem has 200 variables (200 bin, 0 int, 0 impl, 0 cont) and 16997 constraints
    246 constraints of type <setppc>
     16 constraints of type <linear>
  16735 constraints of type <logicor>
transformed objective value is always integral (scale: 1)
Presolving Time: 0.42
transformed 1/1 original solutions to the transformed problem space

 time | node  | left  |LP iter|LP it/n|mem/heur|mdpt |vars |cons |rows |cuts |sepa|confs|strbr|  dualbound   | primalbound  |  gap   | compl. 
  0.8s|     1 |     0 |  1000 |     - |    97M |   0 | 200 |  16k|  16k|   0 |  0 |   0 |   0 |-1.212222e+02 |-6.900000e+01 |  75.68%| unknown
Computing relative interior point (time limit: 19.1928, iter limit: 10000) ...
  2.8s|     1 |     0 |  1204 |     - |   100M |   0 | 201 |  16k|  17k|  10 |  1 |   0 |   0 |-1.212222e+02 |-6.900000e+01 |  75.68%| unknown
  2.8s|     1 |     0 |  1204 |     - |   100M |   0 | 201 |  16k|  17k|  10 |  1 |   0 |   0 |-1.195977e+02 |-6.900000e+01 |  73.33%| unknown
  4.6s|     1 |     0 |  1412 |     - |   111M |   0 | 201 |  16k|  17k|  18 |  2 |   0 |   0 |-1.189167e+02 |-6.900000e+01 |  72.34%| unknown
  5.8s|     1 |     0 |  1615 |     - |   126M |   0 | 201 |  16k|  17k|  26 |  3 |   0 |   0 |-1.186181e+02 |-6.900000e+01 |  71.91%| unknown
  6.0s|     1 |     0 |  1783 |     - |   141M |   0 | 201 |  16k|  17k|  36 |  4 |   0 |   0 |-1.183705e+02 |-6.900000e+01 |  71.55%| unknown
  6.3s|     1 |     0 |  2169 |     - |   156M |   0 | 201 |  16k|  17k|  45 |  5 |   0 |   0 |-1.181071e+02 |-6.900000e+01 |  71.17%| unknown
  6.7s|     1 |     0 |  2595 |     - |   172M |   0 | 201 |  16k|  17k|  55 |  6 |   0 |   0 |-1.175689e+02 |-6.900000e+01 |  70.39%| unknown
  9.5s|     1 |     0 |  2901 |     - |   185M |   0 | 201 |  16k|  17k|  64 |  7 |   0 |   0 |-1.172947e+02 |-6.900000e+01 |  69.99%| unknown
  9.8s|     1 |     0 |  3465 |     - |   199M |   0 | 201 |  16k|  17k|  74 |  8 |   0 |   0 |-1.170000e+02 |-6.900000e+01 |  69.57%| unknown
 10.1s|     1 |     0 |  3549 |     - |   213M |   0 | 201 |  16k|  17k|  84 |  9 |   0 |   0 |-1.170000e+02 |-6.900000e+01 |  69.57%| unknown
 10.2s|     1 |     0 |  3602 |     - |   233M |   0 | 201 |  16k|  17k|  94 | 10 |   0 |   0 |-1.170000e+02 |-6.900000e+01 |  69.57%| unknown
 10.4s|     1 |     0 |  3668 |     - |   248M |   0 | 201 |  16k|  17k| 104 | 11 |   0 |   0 |-1.170000e+02 |-6.900000e+01 |  69.57%| unknown
 10.6s|     1 |     0 |  3734 |     - |   269M |   0 | 201 |  16k|  17k| 114 | 12 |   0 |   0 |-1.170000e+02 |-6.900000e+01 |  69.57%| unknown
 10.8s|     1 |     0 |  3794 |     - |   281M |   0 | 201 |  16k|  17k| 124 | 13 |   0 |   0 |-1.170000e+02 |-6.900000e+01 |  69.57%| unknown
 time | node  | left  |LP iter|LP it/n|mem/heur|mdpt |vars |cons |rows |cuts |sepa|confs|strbr|  dualbound   | primalbound  |  gap   | compl. 
 11.0s|     1 |     0 |  3868 |     - |   308M |   0 | 201 |  16k|  17k| 134 | 14 |   0 |   0 |-1.170000e+02 |-6.900000e+01 |  69.57%| unknown
 11.2s|     1 |     0 |  3947 |     - |   321M |   0 | 201 |  16k|  17k| 144 | 15 |   0 |   0 |-1.170000e+02 |-6.900000e+01 |  69.57%| unknown
 11.5s|     1 |     0 |  4005 |     - |   349M |   0 | 201 |  16k|  17k| 154 | 16 |   0 |   0 |-1.170000e+02 |-6.900000e+01 |  69.57%| unknown
 11.7s|     1 |     0 |  4077 |     - |   368M |   0 | 201 |  16k|  17k| 164 | 17 |   0 |   0 |-1.170000e+02 |-6.900000e+01 |  69.57%| unknown
 11.9s|     1 |     0 |  4153 |     - |   383M |   0 | 201 |  16k|  17k| 174 | 18 |   0 |   0 |-1.170000e+02 |-6.900000e+01 |  69.57%| unknown
 12.2s|     1 |     0 |  4214 |     - |   409M |   0 | 201 |  16k|  17k| 184 | 19 |   0 |   0 |-1.170000e+02 |-6.900000e+01 |  69.57%| unknown
 12.5s|     1 |     0 |  4299 |     - |   430M |   0 | 201 |  16k|  17k| 194 | 20 |   0 |   0 |-1.170000e+02 |-6.900000e+01 |  69.57%| unknown
 12.7s|     1 |     0 |  4381 |     - |   447M |   0 | 201 |  16k|  17k| 204 | 21 |   0 |   0 |-1.170000e+02 |-6.900000e+01 |  69.57%| unknown
 13.0s|     1 |     0 |  4451 |     - |   461M |   0 | 201 |  16k|  17k| 214 | 22 |   0 |   0 |-1.170000e+02 |-6.900000e+01 |  69.57%| unknown
 13.3s|     1 |     0 |  4635 |     - |   496M |   0 | 201 |  16k|  17k| 224 | 23 |   0 |   0 |-1.169331e+02 |-6.900000e+01 |  69.47%| unknown
 13.6s|     1 |     0 |  4761 |     - |   518M |   0 | 201 |  16k|  17k| 234 | 24 |   0 |   0 |-1.168724e+02 |-6.900000e+01 |  69.38%| unknown
 13.8s|     1 |     0 |  4836 |     - |   533M |   0 | 201 |  16k|  17k| 244 | 25 |   0 |   0 |-1.160000e+02 |-6.900000e+01 |  68.12%| unknown
 14.1s|     1 |     0 |  4892 |     - |   545M |   0 | 201 |  16k|  17k| 254 | 26 |   0 |   0 |-1.160000e+02 |-6.900000e+01 |  68.12%| unknown
 14.4s|     1 |     0 |  4987 |     - |   576M |   0 | 201 |  16k|  17k| 264 | 27 |   0 |   0 |-1.160000e+02 |-6.900000e+01 |  68.12%| unknown
 14.6s|     1 |     0 |  5050 |     - |   609M |   0 | 201 |  16k|  17k| 274 | 28 |   0 |   0 |-1.160000e+02 |-6.900000e+01 |  68.12%| unknown
 time | node  | left  |LP iter|LP it/n|mem/heur|mdpt |vars |cons |rows |cuts |sepa|confs|strbr|  dualbound   | primalbound  |  gap   | compl. 
 14.9s|     1 |     0 |  5108 |     - |   629M |   0 | 201 |  16k|  17k| 284 | 29 |   0 |   0 |-1.160000e+02 |-6.900000e+01 |  68.12%| unknown
 15.2s|     1 |     0 |  5162 |     - |   645M |   0 | 201 |  16k|  17k| 294 | 30 |   0 |   0 |-1.160000e+02 |-6.900000e+01 |  68.12%| unknown
 15.4s|     1 |     0 |  5231 |     - |   656M |   0 | 201 |  16k|  17k| 304 | 31 |   0 |   0 |-1.160000e+02 |-6.900000e+01 |  68.12%| unknown
 15.7s|     1 |     0 |  5307 |     - |   672M |   0 | 201 |  16k|  17k| 314 | 32 |   0 |   0 |-1.160000e+02 |-6.900000e+01 |  68.12%| unknown
 16.0s|     1 |     0 |  5409 |     - |   716M |   0 | 201 |  16k|  17k| 324 | 33 |   0 |   0 |-1.160000e+02 |-6.900000e+01 |  68.12%| unknown
 16.3s|     1 |     0 |  5486 |     - |   744M |   0 | 201 |  16k|  17k| 334 | 34 |   0 |   0 |-1.160000e+02 |-6.900000e+01 |  68.12%| unknown
 16.7s|     1 |     0 |  5547 |     - |   766M |   0 | 201 |  16k|  17k| 344 | 35 |   0 |   0 |-1.160000e+02 |-6.900000e+01 |  68.12%| unknown
 17.0s|     1 |     0 |  5635 |     - |   780M |   0 | 201 |  16k|  17k| 354 | 36 |   0 |   0 |-1.160000e+02 |-6.900000e+01 |  68.12%| unknown
 17.3s|     1 |     0 |  5691 |     - |   793M |   0 | 201 |  16k|  17k| 364 | 37 |   0 |   0 |-1.160000e+02 |-6.900000e+01 |  68.12%| unknown
 17.6s|     1 |     0 |  5759 |     - |   806M |   0 | 201 |  16k|  17k| 374 | 38 |   0 |   0 |-1.160000e+02 |-6.900000e+01 |  68.12%| unknown
 18.0s|     1 |     0 |  5837 |     - |   851M |   0 | 201 |  16k|  17k| 384 | 39 |   0 |   0 |-1.160000e+02 |-6.900000e+01 |  68.12%| unknown
 18.3s|     1 |     0 |  5920 |     - |   892M |   0 | 201 |  16k|  17k| 394 | 40 |   0 |   0 |-1.160000e+02 |-6.900000e+01 |  68.12%| unknown
 18.6s|     1 |     0 |  5998 |     - |   914M |   0 | 201 |  16k|  17k| 404 | 41 |   0 |   0 |-1.160000e+02 |-6.900000e+01 |  68.12%| unknown
 18.9s|     1 |     0 |  6065 |     - |   931M |   0 | 201 |  16k|  17k| 414 | 42 |   0 |   0 |-1.160000e+02 |-6.900000e+01 |  68.12%| unknown
 19.2s|     1 |     0 |  6143 |     - |   944M |   0 | 201 |  16k|  17k| 424 | 43 |   0 |   0 |-1.160000e+02 |-6.900000e+01 |  68.12%| unknown
 time | node  | left  |LP iter|LP it/n|mem/heur|mdpt |vars |cons |rows |cuts |sepa|confs|strbr|  dualbound   | primalbound  |  gap   | compl. 
 19.5s|     1 |     0 |  6233 |     - |   956M |   0 | 201 |  16k|  17k| 434 | 44 |   0 |   0 |-1.160000e+02 |-6.900000e+01 |  68.12%| unknown
 19.8s|     1 |     0 |  6295 |     - |   972M |   0 | 201 |  16k|  17k| 444 | 45 |   0 |   0 |-1.160000e+02 |-6.900000e+01 |  68.12%| unknown
 20.0s|     1 |     0 |  6295 |     - |  1005M |   0 | 201 |  16k|  17k| 454 | 46 |   0 |   0 |-1.160000e+02 |-6.900000e+01 |  68.12%| unknown
(node 1) LP solver hit time limit in LP 46 -- using pseudo solution instead

SCIP Status        : solving was interrupted [time limit reached]
Solving Time (sec) : 20.01
Solving Nodes      : 1
Primal Bound       : -6.90000000000000e+01 (1 solutions)
Dual Bound         : -1.16000000000000e+02
Gap                : 68.12 %
